Nd DHCP
1.0
3.660000 0.000000 0.000000
-1.830000 3.169653 0.000000
0.000000 0.000000 11.800000
Nd
4
Direct
0.333333 0.666667 0.083333
0.666667 0.333333 0.416667
0.333333 0.666667 0.583333
0.666667 0.333333 0.916667

