Au
1.0
        4.0780000687         0.0000000000         0.0000000000
        0.0000000000         4.0780000687         0.0000000000
        0.0000000000         0.0000000000         4.0780000687
   Au
    4
Direct
     0.000000000         0.000000000         0.000000000
     0.000000000         0.500000000         0.500000000
     0.500000000         0.000000000         0.500000000
     0.500000000         0.500000000         0.000000000