SYSTEM = FeAl

Algo = Fast
####LREAL = Auto
ENCUT = 348

ISMEAR = 1
SIGMA = 0.1

NSW = 200
IBRION = 2
ISIF = 3

ISPIN = 2
######MAGMOM =   # cryspy append MAGMOM in work/xx/INCAR 

EDIFF = 1e-6
EDIFFG = -0.01

KPAR = 4

LWAVE = .FALSE.
LCHARG = .FALSE.
