Fe BCC primitive
1.000000
  -1.43326652050000   1.43326652050000   1.43326652050000
   1.43326652050000  -1.43326652050000   1.43326652050000
   1.43326652050000   1.43326652050000  -1.43326652050000
Fe
1
Direct
   0.00000000000000   0.00000000000000   0.00000000000000  Fe
