Cr_bcc
1.0
   2.8800   0.0000   0.0000
   0.0000   2.8800   0.0000
   0.0000   0.0000   2.8800
Cr
2
Direct
   0.000000  0.000000  0.000000
   0.500000  0.500000  0.500000
