&control
calculation = 'relax'
nstep = 40
pseudo_dir = '/usr/local/qe/gbrv/all_pbe_UPF_v1.5/'
outdir='./outdir/'
/


&system
ibrav = 0
nat = 1
ntyp = 2
ecutwfc = 40
ecutrho = 200

occupations = "smearing"
smearing    = "mp"
degauss     =  0.01

nspin = 2
starting_magnetization(1) = 0.4
starting_magnetization(2) = 0.0
/


&electrons
mixing_beta = 0.4
/

&ions
/

&cell
/

ATOMIC_SPECIES
Fe -1.0 fe_pbe_v1.5.uspp.F.UPF
Al -1.0 al_pbe_v1.uspp.F.UPF