Co_hcp
1.0
   2.5070   0.0000   0.0000
  -1.2535   2.1700   0.0000
   0.0000   0.0000   4.0700
Co
2
Direct
  0.333333  0.666667  0.250000
  0.666667  0.333333  0.750000
