C_dia
1.0
   3.5670   0.0000   0.0000
   0.0000   3.5670   0.0000
   0.0000   0.0000   3.5670
C
2
Direct
   0.000000  0.000000  0.000000
   0.250000  0.250000  0.250000
