Sm_dhcp
1.0
   3.6400   0.0000   0.0000
  -1.8200   3.1520   0.0000
   0.0000   0.0000   11.8000
Sm
4
Direct
  0.333333  0.666667  0.062500
  0.666667  0.333333  0.187500
  0.333333  0.666667  0.562500
  0.666667  0.333333  0.687500
