Ti
1.0
        2.9514000416         0.0000000000         0.0000000000
       -1.4757000208         2.5559874127         0.0000000000
        0.0000000000         0.0000000000         4.6813998222
   Ti
    2
Direct
     0.333333343         0.666666687         0.250000000
     0.666666627         0.333333313         0.750000000
