Li_bcc
1.0
   3.4900   0.0000   0.0000
   0.0000   3.4900   0.0000
   0.0000   0.0000   3.4900
Li
2
Direct
   0.000000  0.000000  0.000000
   0.500000  0.500000  0.500000
