Sn
1.0
5.83 0.00 0.00
0.00 5.83 0.00
0.00 0.00 3.18
Sn
2
Direct
0.000000 0.000000 0.000000
0.500000 0.500000 0.500000
