Si_dai
1.0
   5.4300   0.0000   0.0000
   0.0000   5.4300   0.0000
   0.0000   0.0000   5.4300
Si
2
Direct
   0.000000  0.000000  0.000000
   0.250000  0.250000  0.250000
