 &control
    title = 'case'
    calculation = 'relax'
    nstep = 100
    restart_mode = 'from_scratch',
    pseudo_dir = './../pp/'
    outdir='./out.d/'
 /

 &system
    ibrav = 0
    nat = 1
    ntyp = 1
    occupations = 'smearing'
    degauss = 0.01
    nspin = 2
    starting_magnetization(1) = 0.4
 /

 &electrons
    mixing_beta = 0.4
    conv_thr = 1.0d-4
 /

 &ions
 /

 &cell
 /

ATOMIC_SPECIES
    
