B alpha-Boron (rhombohedral)
1.0
5.060000 0.000000 0.000000
2.676896 4.293929 0.000000
2.676896 1.485661 4.028727
B
12
Direct
0.000000 0.000000 0.000000
0.000000 0.000000 0.500000
0.333300 0.666700 0.000000
0.666700 0.333300 0.500000
0.333300 0.666700 0.500000
0.666700 0.333300 0.000000
0.250000 0.250000 0.250000
0.750000 0.750000 0.750000
0.250000 0.750000 0.750000
0.750000 0.250000 0.250000
0.250000 0.750000 0.250000
0.750000 0.250000 0.750000

