Mg
1.0
        3.2100000000         0.0000000000         0.0000000000
       -1.6050000000         2.7799415461         0.0000000000
        0.0000000000         0.0000000000         5.2360000000
   Mg
    2
Direct
     0.333333343         0.666666687         0.250000000
     0.666666627         0.333333313         0.750000000

