Aluminum
1.000000
   0.00000000000000   2.02469992640000   2.02469992640000
   2.02469992640000   0.00000000000000   2.02469992640000
   2.02469992640000   2.02469992640000   0.00000000000000
Al
1
Direct
   0.00000000000000   0.00000000000000   0.00000000000000  Al
