Zr
1.0
3.23 0.00 0.00
-1.615 2.797 0.00
0.00 0.00 5.15
Zr
2
Direct
0.000000 0.000000 0.000000
0.666667 0.333333 0.500000
