 &control
    calculation = 'vc-relax'
    nstep = 10
    pseudo_dir = './../../pp/'
    outdir='./outdir/'
    tprnfor = .true.
 /

 &system
    ibrav = 0
    nat = 8
    ntyp = 1
    ecutwfc = 44.0
    occupations = 'smearing'
    degauss = 0.01
 /

 &electrons
 /

 &ions
 /

 &cell
 /

ATOMIC_SPECIES
  Si  28.086  Si.pbe-n-kjpaw_psl.1.0.0.UPF
