Y
1.0
  3.647000 0.000000 0.000000
 -1.823500 3.157000 0.000000
  0.000000 0.000000 5.731000
Y
2
Direct
  0.333333 0.666667 0.250000
  0.666667 0.333333 0.750000
