Zn
1.0
        2.6600000000         0.0000000000         0.0000000000
       -1.3300000000         2.3036275741         0.0000000000
        0.0000000000         0.0000000000         4.9400000000
   Zn
    2
Direct
     0.333333343         0.666666687         0.250000000
     0.666666627         0.333333313         0.750000000

