In_tetragonal
1.0
   3.2500   0.0000   0.0000
   0.0000   3.2500   0.0000
   0.0000   0.0000   4.9500
In
2
Direct
   0.000000  0.000000  0.000000
   0.500000  0.500000  0.500000
