Mn_bcc
1.0
   2.9700   0.0000   0.0000
   0.0000   2.9700   0.0000
   0.0000   0.0000   2.9700
Mn
2
Direct
   0.000000  0.000000  0.000000
   0.500000  0.500000  0.500000
