Pb_fcc
1.0
   4.9500   0.0000   0.0000
   0.0000   4.9500   0.0000
   0.0000   0.0000   4.9500
Pb
4
Direct
   0.000000  0.000000  0.000000
   0.000000  0.500000  0.500000
   0.500000  0.000000  0.500000
   0.500000  0.500000  0.000000
