 &control
    title = 'case'
    calculation = 'scf'
    restart_mode = 'from_scratch',
    pseudo_dir = './../../pp/'
    outdir='./out.d/'
 /

 &system
    ibrav = 0
    nat = 1
    ntyp = 2
    occupations = 'smearing'
    smearing = 'mp'
    degauss = 0.02
    nspin = 2
 /

 &electrons
    mixing_beta = 0.4
    conv_thr = 1.0d-4
 /

 &ions
 /

 &cell
 /

ATOMIC_SPECIES
